presolving:
(round 1, fast)       96156 del vars, 7356 del conss, 0 add conss, 936 chg bounds, 1836 chg sides, 0 chg coeffs, 0 upgd conss, 0 impls, 1356 clqs
(round 2, fast)       97068 del vars, 8316 del conss, 0 add conss, 936 chg bounds, 2796 chg sides, 0 chg coeffs, 0 upgd conss, 0 impls, 1356 clqs
   (1.0s) running MILP presolver
   (1.0s) MILP presolver found nothing
(round 3, exhaustive) 97068 del vars, 8316 del conss, 0 add conss, 936 chg bounds, 2796 chg sides, 0 chg coeffs, 1460 upgd conss, 0 impls, 1356 clqs
(round 4, fast)       127020 del vars, 8420 del conss, 0 add conss, 936 chg bounds, 2796 chg sides, 0 chg coeffs, 1460 upgd conss, 0 impls, 1356 clqs
   (1.0s) running MILP presolver
   (1.1s) MILP presolver found nothing
   (1.1s) probing: 51/312 (16.3%) - 0 fixings, 0 aggregations, 0 implications, 0 bound changes
   (1.1s) probing aborted: 50/50 successive totally useless probings
   (1.1s) symmetry computation started: requiring (bin +, int -, cont +), (fixed: bin -, int +, cont -)
   (1.1s) no symmetry present
presolving (5 rounds: 5 fast, 2 medium, 2 exhaustive):
 127020 deleted vars, 8420 deleted constraints, 0 added constraints, 936 tightened bounds, 0 added holes, 2796 changed sides, 0 changed coefficients
 0 implications, 1356 cliques
presolved problem has 312 variables (312 bin, 0 int, 0 impl, 0 cont) and 1356 constraints
   1356 constraints of type <setppc>
Presolving Time: 0.69

 time | node  | left  |LP iter|LP it/n|mem/heur|mdpt |vars |cons |rows |cuts |sepa|confs|strbr|  dualbound   | primalbound  |  gap   | compl. 
t 1.1s|     1 |     0 |     0 |     - | trivial|   0 | 312 |1356 |   0 |   0 |  0 |   0 |   0 | 1.720883e+08 | 1.720725e+08 |   0.01%| unknown
p 1.1s|     1 |     0 |     0 |     - |  clique|   0 | 312 |1356 |1356 |   0 |  0 |   0 |   0 | 1.720883e+08 | 1.720764e+08 |   0.01%| unknown
p 1.1s|     1 |     0 |     0 |     - |   locks|   0 | 312 |1356 |1356 |   0 |  0 |   0 |   0 | 1.720883e+08 | 1.720782e+08 |   0.01%| unknown
i 1.1s|     1 |     0 |     0 |     - |  oneopt|   0 | 312 |1356 |1356 |   0 |  0 |   0 |   0 | 1.720883e+08 | 1.720783e+08 |   0.01%| unknown
  1.1s|     1 |     0 |   971 |     - |   365M |   0 | 312 |1356 |1356 |   0 |  0 |   0 |   0 | 1.720791e+08 | 1.720783e+08 |   0.00%| unknown
  1.2s|     1 |     0 |  1083 |     - |   366M |   0 | 312 |1356 |1358 |   2 |  1 |   0 |   0 | 1.720790e+08 | 1.720783e+08 |   0.00%| unknown
  1.4s|     1 |     0 |  1159 |     - |   366M |   0 | 312 |1356 |1360 |   4 |  2 |   0 |   0 | 1.720790e+08 | 1.720783e+08 |   0.00%| unknown
  1.5s|     1 |     0 |  1262 |     - |   366M |   0 | 312 |1356 |1362 |   6 |  3 |   0 |   0 | 1.720790e+08 | 1.720783e+08 |   0.00%| unknown
  1.7s|     1 |     0 |  1411 |     - |   367M |   0 | 312 |1356 |1365 |   9 |  4 |   0 |   0 | 1.720790e+08 | 1.720783e+08 |   0.00%| unknown
  1.8s|     1 |     0 |  1538 |     - |   367M |   0 | 312 |1356 |1368 |  12 |  5 |   0 |   0 | 1.720790e+08 | 1.720783e+08 |   0.00%| unknown
  1.9s|     1 |     0 |  1664 |     - |   367M |   0 | 312 |1356 |1369 |  13 |  6 |   0 |   0 | 1.720790e+08 | 1.720783e+08 |   0.00%| unknown
  2.0s|     1 |     0 |  1728 |     - |   370M |   0 | 312 |1356 |1370 |  14 |  7 |   0 |   0 | 1.720790e+08 | 1.720783e+08 |   0.00%| unknown
  2.1s|     1 |     0 |  1835 |     - |   371M |   0 | 312 |1356 |1371 |  15 |  8 |   0 |   0 | 1.720790e+08 | 1.720783e+08 |   0.00%| unknown
  2.2s|     1 |     0 |  1923 |     - |   374M |   0 | 312 |1356 |1372 |  16 |  9 |   0 |   0 | 1.720790e+08 | 1.720783e+08 |   0.00%| unknown
  2.3s|     1 |     0 |  2008 |     - |   375M |   0 | 312 |1356 |1373 |  17 | 10 |   0 |   0 | 1.720790e+08 | 1.720783e+08 |   0.00%| unknown
 time | node  | left  |LP iter|LP it/n|mem/heur|mdpt |vars |cons |rows |cuts |sepa|confs|strbr|  dualbound   | primalbound  |  gap   | compl. 
  2.3s|     1 |     0 |  2196 |     - |   375M |   0 | 312 |1356 |1377 |  21 | 11 |   0 |   0 | 1.720790e+08 | 1.720783e+08 |   0.00%| unknown
  2.4s|     1 |     0 |  2363 |     - |   376M |   0 | 312 |1356 |1380 |  24 | 12 |   0 |   0 | 1.720790e+08 | 1.720783e+08 |   0.00%| unknown
  2.4s|     1 |     0 |  2489 |     - |   376M |   0 | 312 |1356 |1383 |  27 | 13 |   0 |   0 | 1.720790e+08 | 1.720783e+08 |   0.00%| unknown
  2.5s|     1 |     0 |  2681 |     - |   376M |   0 | 312 |1356 |1387 |  31 | 14 |   0 |   0 | 1.720789e+08 | 1.720783e+08 |   0.00%| unknown
  2.5s|     1 |     0 |  2756 |     - |   376M |   0 | 312 |1356 |1388 |  32 | 15 |   0 |   0 | 1.720789e+08 | 1.720783e+08 |   0.00%| unknown
  2.5s|     1 |     0 |  2795 |     - |   376M |   0 | 312 |1356 |1390 |  34 | 16 |   0 |   0 | 1.720789e+08 | 1.720783e+08 |   0.00%| unknown
  2.6s|     1 |     0 |  2857 |     - |   376M |   0 | 312 |1356 |1390 |  35 | 17 |   0 |   0 | 1.720789e+08 | 1.720783e+08 |   0.00%| unknown
  2.6s|     1 |     0 |  2922 |     - |   376M |   0 | 312 |1356 |1391 |  36 | 18 |   0 |   0 | 1.720789e+08 | 1.720783e+08 |   0.00%| unknown
  2.6s|     1 |     0 |  2954 |     - |   376M |   0 | 312 |1356 |1392 |  37 | 19 |   0 |   0 | 1.720789e+08 | 1.720783e+08 |   0.00%| unknown
  2.7s|     1 |     0 |  3066 |     - |   377M |   0 | 312 |1356 |1394 |  39 | 20 |   0 |   0 | 1.720789e+08 | 1.720783e+08 |   0.00%| unknown
  3.7s|     1 |     2 |  5134 |     - |   377M |   0 | 312 |1362 |1394 |  39 | 22 |   6 |  19 | 1.720789e+08 | 1.720783e+08 |   0.00%| unknown
* 7.7s|    15 |     6 |  8749 | 405.9 |    LP  |   6 | 312 |1412 |1382 |  39 | 11 |  56 | 451 | 1.720789e+08 | 1.720783e+08 |   0.00%|   7.95%
* 8.3s|    17 |     6 |  9145 | 379.9 |strongbr|   7 | 312 |1420 |1382 |  39 |  6 |  64 | 529 | 1.720789e+08 | 1.720783e+08 |   0.00%|   8.98%
* 8.4s|    17 |     6 |  9173 | 381.7 |strongbr|   7 | 312 |1421 |1382 |  39 |  8 |  65 | 539 | 1.720789e+08 | 1.720783e+08 |   0.00%|   8.98%
*11.3s|    26 |     5 | 11028 | 318.5 |strongbr|  11 | 312 |1440 |1395 |  60 |  1 |  84 | 713 | 1.720789e+08 | 1.720783e+08 |   0.00%|  12.46%
 time | node  | left  |LP iter|LP it/n|mem/heur|mdpt |vars |cons |rows |cuts |sepa|confs|strbr|  dualbound   | primalbound  |  gap   | compl. 
*11.4s|    33 |     6 | 11342 | 258.6 |strongbr|  14 | 312 |1442 |1395 |  60 |  2 |  86 | 728 | 1.720789e+08 | 1.720784e+08 |   0.00%|  14.99%
*11.4s|    36 |     7 | 11387 | 237.7 |    LP  |  16 | 312 |1442 |1395 |  60 |  1 |  86 | 729 | 1.720789e+08 | 1.720784e+08 |   0.00%|  15.71%
 13.4s|   100 |     5 | 15857 | 129.2 |   380M |  17 | 312 |1461 |1406 |  84 |  6 | 105 | 770 | 1.720789e+08 | 1.720784e+08 |   0.00%|  30.32%
 16.2s|   200 |    11 | 24624 | 108.3 |   387M |  18 | 312 |1465 |1406 | 132 |  3 | 109 | 794 | 1.720788e+08 | 1.720784e+08 |   0.00%|  38.49%
 19.1s|   300 |    13 | 34228 | 104.2 |   391M |  18 | 312 |1475 |1422 | 214 |  1 | 119 | 814 | 1.720788e+08 | 1.720784e+08 |   0.00%|  44.32%
*19.3s|   322 |    15 | 35691 | 101.6 |    LP  |  18 | 312 |1488 |1422 | 214 |  1 | 132 | 827 | 1.720788e+08 | 1.720784e+08 |   0.00%|  44.32%
*19.3s|   323 |    14 | 35699 | 101.3 |    LP  |  18 | 312 |1488 |1422 | 214 |  1 | 132 | 827 | 1.720788e+08 | 1.720784e+08 |   0.00%|  44.32%
*19.4s|   329 |    13 | 35863 | 100.0 |    LP  |  18 | 312 |1488 |1422 | 214 |  1 | 132 | 827 | 1.720788e+08 | 1.720784e+08 |   0.00%|  44.94%
*19.7s|   355 |    13 | 38017 |  98.7 |    LP  |  19 | 312 |1493 |1422 | 227 |  1 | 137 | 830 | 1.720788e+08 | 1.720784e+08 |   0.00%|  46.05%
 20.0s|   400 |    12 | 40715 |  94.4 |   392M |  19 | 312 |1512 |1397 | 227 |  0 | 156 | 850 | 1.720788e+08 | 1.720784e+08 |   0.00%|  51.10%
 21.9s|   500 |    16 | 49177 |  92.4 |   395M |  23 | 312 |1531 |1436 | 276 |  2 | 180 | 884 | 1.720787e+08 | 1.720784e+08 |   0.00%|  53.11%
*22.4s|   540 |    16 | 52369 |  91.5 |    LP  |  25 | 312 |1535 |1436 | 292 |  2 | 188 | 894 | 1.720787e+08 | 1.720784e+08 |   0.00%|  54.42%
*22.4s|   541 |    15 | 52390 |  91.3 |    LP  |  25 | 312 |1535 |1436 | 292 |  1 | 188 | 894 | 1.720787e+08 | 1.720785e+08 |   0.00%|  54.42%
*22.5s|   557 |    15 | 53431 |  90.6 |    LP  |  25 | 312 |1535 |1438 | 292 |  1 | 188 | 894 | 1.720787e+08 | 1.720785e+08 |   0.00%|  55.58%
 23.2s|   600 |    16 | 57048 |  90.1 |   395M |  27 | 312 |1546 |1422 | 310 |  1 | 216 | 921 | 1.720787e+08 | 1.720785e+08 |   0.00%|  57.55%
 time | node  | left  |LP iter|LP it/n|mem/heur|mdpt |vars |cons |rows |cuts |sepa|confs|strbr|  dualbound   | primalbound  |  gap   | compl. 
*24.3s|   674 |    14 | 62199 |  87.9 |    LP  |  27 | 312 |1549 |1427 | 336 |  1 | 224 | 929 | 1.720787e+08 | 1.720785e+08 |   0.00%|  58.73%
 24.5s|   700 |    16 | 63814 |  86.9 |   397M |  27 | 312 |1551 |1428 | 339 |  1 | 232 | 937 | 1.720787e+08 | 1.720785e+08 |   0.00%|  60.74%
*24.8s|   760 |    14 | 67697 |  85.2 |    LP  |  27 | 312 |1552 |1430 | 345 |  2 | 236 | 941 | 1.720787e+08 | 1.720785e+08 |   0.00%|  62.54%
 25.0s|   800 |    14 | 70553 |  84.5 |   395M |  27 | 312 |1554 |1441 | 350 |  0 | 242 | 946 | 1.720787e+08 | 1.720785e+08 |   0.00%|  64.10%
*25.2s|   818 |    13 | 72091 |  84.5 |    LP  |  27 | 312 |1556 |1442 | 353 |  2 | 246 | 948 | 1.720787e+08 | 1.720785e+08 |   0.00%|  65.19%
*25.2s|   821 |    12 | 72275 |  84.4 |    LP  |  27 | 312 |1556 |1442 | 353 |  2 | 246 | 948 | 1.720787e+08 | 1.720785e+08 |   0.00%|  65.90%
 25.9s|   900 |     7 | 77342 |  82.6 |   395M |  28 | 312 |1567 |1441 | 378 |  0 | 268 | 960 | 1.720787e+08 | 1.720785e+08 |   0.00%|  77.89%

SCIP Status        : problem is solved [optimal solution found]
Solving Time (sec) : 27.16
Solving Nodes      : 993
Primal Bound       : +1.72078514767008e+08 (476 solutions)
Dual Bound         : +1.72078514767008e+08
Gap                : 0.00 %
Solve Status: optimal
Solve Time: 27.19 seconds
